data;

set A := 314807471 143053346 572381193 790940861 586514513 357234302 525958112 637836557 116580768 239572492 558731912 378667044 90062514 429762219 121074202 285490671 293922549 465337378 265746348 495310050 586461299 253160803 159415946 834044731 259517712 482394569 280952703 310787651 239563208 234505819 916676108 304777102 531255796 159072009 911346093 474816056 959348867 934008812 83195673 350070311 533505347 290447495 16628096 188105037 914077207 513944842 55671756 841701605 983129663 645586315 736420834 641113267 411383189 461469517 506723296 104205382 15011788 95955450 722752862 626037815 916880305 14743786 491375279 440170857 870245484 724720732 139241503 921557065 16825533 831954106 939314996 366125580;
param T := 18000000000;

end;
